946 1848
2 1 4
118 1 -4
442 1 -4
484 1 4
440 2 -4
461 2 -4
872 2 4
4 3 4
128 3 -4
438 3 -4
529 3 4
129 4 -4
284 4 4
477 4 -4
73 5 4
426 5 -4
732 5 4
771 5 -4
7 6 4
13 6 4
17 6 -4
415 6 -4
98 7 -4
433 7 -4
893 7 4
9 8 4
503 8 -4
504 8 4
562 8 -4
142 9 -4
456 9 -4
914 9 4
11 10 -4
20 10 4
773 10 4
776 10 -4
28 11 4
537 11 4
575 11 -4
84 12 -4
346 12 4
416 12 -4
836 12 4
85 13 -4
346 13 -4
589 13 4
73 14 -4
347 14 -4
696 14 4
824 14 4
16 15 4
386 15 4
517 15 -4
626 15 -4
290 16 4
367 16 -4
372 16 -4
100 17 -4
549 17 4
897 17 4
125 18 -4
434 18 4
498 18 4
523 18 -4
348 19 -4
426 19 -4
734 19 4
775 19 4
348 20 -4
662 20 4
737 20 -4
22 21 4
84 21 -4
381 21 4
471 21 -4
364 22 -4
370 22 -4
742 22 4
110 23 -4
346 23 -4
519 23 4
840 23 4
139 24 -4
418 24 4
474 24 4
556 24 -4
26 25 4
169 25 4
181 25 -4
682 25 -4
130 26 4
354 26 -4
362 26 -4
28 27 4
347 27 -4
620 27 4
778 27 -4
942 28 -4
945 28 -4
30 29 4
54 29 4
98 29 -4
451 29 -4
360 30 -4
367 30 -4
785 30 4
32 31 4
151 31 -4
404 31 4
596 31 -4
274 32 4
453 32 -4
795 32 -4
127 33 4
419 33 4
716 33 -4
801 33 -4
35 34 4
155 34 4
191 34 -4
646 34 -4
351 35 -4
359 35 -4
759 35 4
37 36 4
81 36 -4
567 36 4
685 36 -4
94 37 -4
155 37 -4
156 37 4
210 38 4
246 38 4
821 38 -4
881 38 -4
40 39 4
348 39 -4
579 39 4
827 39 -4
881 40 4
882 40 -4
885 40 -4
350 41 4
357 41 -4
364 41 -4
834 41 4
212 42 4
264 42 4
350 42 -4
374 42 -4
161 43 4
591 43 -4
842 43 4
899 43 -4
45 44 4
395 44 4
525 44 -4
638 44 -4
86 45 -4
265 45 4
266 45 -4
113 46 4
420 46 -4
435 46 4
501 46 -4
48 47 4
49 47 -4
144 47 4
200 47 -4
67 48 -4
356 48 -4
809 48 4
167 49 4
168 49 4
362 49 -4
51 50 4
96 50 -4
608 50 4
649 50 -4
106 51 -4
144 51 -4
145 51 4
353 52 4
355 52 -4
360 52 -4
891 52 4
218 53 4
353 53 -4
376 53 -4
545 53 4
353 54 -4
705 54 4
788 54 -4
104 55 4
436 55 -4
454 55 4
528 55 -4
57 56 4
481 56 -4
861 56 4
918 56 -4
396 57 -4
504 57 -4
645 57 4
59 58 -4
131 58 4
760 58 -4
861 58 4
180 59 4
366 59 -4
648 59 4
61 60 4
482 60 -4
606 60 -4
651 60 4
115 61 -4
131 61 -4
813 61 4
608 62 -4
610 62 4
651 62 4
653 62 -4
64 63 4
249 63 4
349 63 -4
497 63 -4
137 64 4
138 64 -4
521 64 -4
454 65 -4
475 65 4
850 65 4
908 65 -4
91 66 4
455 66 -4
475 66 4
560 66 -4
68 67 4
505 67 -4
921 67 4
388 68 -4
478 68 -4
681 68 4
70 69 -4
116 69 4
723 69 -4
921 69 4
190 70 4
369 70 -4
684 70 4
460 71 -4
566 71 -4
688 71 4
866 71 4
172 72 4
567 72 -4
688 72 4
690 72 -4
204 73 -4
446 73 4
75 74 4
241 74 4
358 74 -4
906 74 -4
123 75 4
124 75 -4
496 75 -4
476 76 -4
499 76 4
600 76 -4
641 76 4
438 77 -4
601 77 4
641 77 4
801 77 -4
314 78 4
351 78 4
382 78 -4
457 78 -4
441 79 -4
532 79 -4
726 79 4
926 79 4
81 80 -4
157 80 4
726 80 4
728 80 -4
237 81 4
533 81 4
83 82 -4
97 82 4
542 82 4
832 82 -4
583 83 4
585 84 4
786 84 4
634 85 -4
671 85 4
792 85 4
87 86 4
234 86 4
361 86 -4
473 87 -4
792 87 -4
902 87 4
234 88 -4
341 88 4
404 88 4
749 88 -4
500 89 -4
526 89 4
642 89 -4
677 89 4
91 90 -4
561 90 4
643 90 -4
677 90 4
252 91 -4
802 91 4
321 92 4
354 92 4
377 92 -4
439 92 -4
268 93 4
276 93 4
354 93 -4
439 93 -4
154 94 4
406 94 4
864 94 -4
96 95 -4
147 95 4
764 95 4
767 95 -4
244 96 4
508 96 4
99 97 4
352 97 -4
786 97 -4
99 98 4
546 98 4
741 99 -4
743 99 -4
632 100 4
673 100 -4
845 100 4
334 101 4
418 101 4
713 101 -4
715 101 -4
527 102 -4
558 102 4
678 102 -4
717 102 4
104 103 -4
197 103 4
679 103 -4
717 103 4
243 104 -4
857 104 4
152 105 -4
331 105 4
356 105 4
422 105 -4
143 106 4
809 106 -4
926 106 4
134 107 4
482 107 -4
814 107 4
817 107 -4
109 108 4
350 108 -4
415 108 -4
518 108 4
703 109 -4
704 109 -4
832 109 4
588 110 4
710 110 -4
902 110 4
220 111 -4
328 111 4
434 111 4
676 111 -4
113 112 -4
188 112 4
720 112 -4
750 112 4
235 113 -4
914 113 4
141 114 -4
336 114 4
359 114 4
405 114 -4
130 115 4
759 115 -4
866 115 4
648 116 4
649 116 -4
866 116 -4
460 117 -4
766 117 4
870 117 4
873 117 -4
183 118 4
692 118 -4
766 118 4
120 119 4
657 119 -4
823 119 4
882 119 -4
289 120 4
487 120 -4
656 120 -4
122 121 4
353 121 -4
432 121 -4
494 121 4
666 122 -4
667 122 -4
889 122 4
224 123 4
674 123 -4
901 123 -4
300 124 4
417 124 -4
589 124 4
455 125 -4
639 125 4
853 125 4
127 126 -4
177 126 4
753 126 -4
800 126 4
226 127 -4
284 127 4
129 128 4
757 128 4
918 128 -4
177 129 -4
285 129 4
722 130 -4
724 130 -4
606 131 -4
684 131 4
441 132 -4
816 132 4
930 132 4
933 132 -4
134 133 -4
173 133 4
463 133 -4
816 133 4
288 134 4
483 134 -4
136 135 4
614 135 -4
774 135 4
942 135 -4
279 136 4
465 136 -4
613 136 -4
520 137 4
711 137 -4
844 137 -4
248 138 -4
549 138 4
712 138 4
476 139 -4
598 139 4
798 139 4
164 140 4
501 140 -4
803 140 -4
856 140 4
142 141 4
754 141 -4
806 141 4
164 142 -4
275 142 4
302 143 -4
682 143 4
683 143 -4
199 144 4
566 144 -4
310 145 -4
440 145 4
762 145 -4
147 146 -4
158 146 4
485 146 -4
872 146 4
508 147 -4
934 147 4
270 148 4
445 148 -4
571 148 -4
734 148 4
358 149 4
550 149 4
748 149 -4
843 149 -4
240 150 -4
358 150 -4
519 150 4
675 150 4
162 151 4
500 151 -4
557 151 4
153 152 -4
860 152 4
916 152 4
197 153 -4
301 153 4
756 153 4
309 154 -4
646 154 4
647 154 -4
208 155 4
532 155 -4
253 156 -4
315 156 -4
930 156 4
324 157 4
373 157 -4
533 157 -4
373 158 -4
398 158 4
409 158 -4
263 159 4
425 159 -4
536 159 -4
696 159 4
361 160 4
590 160 4
793 160 -4
900 160 -4
233 161 -4
283 161 4
361 161 -4
196 162 4
525 162 -4
854 162 -4
196 163 -4
437 163 4
502 163 -4
599 163 4
165 164 4
437 164 -4
377 165 4
562 165 -4
858 165 -4
308 166 4
377 166 -4
561 166 -4
805 166 4
918 167 4
919 167 -4
922 167 -4
363 168 4
603 168 -4
605 168 -4
507 169 -4
685 169 -4
808 169 4
323 170 -4
685 170 4
686 170 -4
870 170 4
375 171 4
484 171 -4
508 171 4
871 171 -4
316 172 4
375 172 -4
568 172 -4
375 173 -4
390 173 4
424 173 -4
255 174 4
410 174 -4
511 174 -4
659 174 4
365 175 4
633 175 4
709 175 -4
846 175 -4
187 176 -4
456 176 4
477 176 -4
640 176 4
178 177 4
456 177 -4
382 178 4
529 178 -4
803 178 -4
313 179 4
320 179 4
382 179 -4
601 179 -4
322 180 -4
860 180 4
862 180 -4
649 181 -4
863 181 4
927 181 4
378 182 4
462 182 -4
533 182 4
815 182 -4
378 183 -4
384 183 4
444 183 -4
399 184 -4
487 184 -4
616 184 4
941 184 4
217 185 4
380 185 -4
490 185 4
513 185 -4
328 186 -4
522 186 4
903 186 4
904 186 -4
329 187 4
678 187 -4
798 187 4
189 188 4
477 188 -4
754 188 -4
388 189 4
504 189 -4
753 189 -4
332 190 -4
806 190 4
807 190 -4
606 191 -4
867 191 4
923 191 4
383 192 4
443 192 -4
568 192 4
765 192 -4
211 193 4
385 193 -4
468 193 4
539 193 -4
374 194 4
376 194 -4
334 195 -4
555 195 4
846 195 4
847 195 -4
335 196 4
716 196 -4
198 197 4
502 197 -4
396 198 4
478 198 -4
720 198 -4
277 199 -4
724 199 4
922 199 -4
236 200 4
566 200 -4
811 200 4
389 201 4
423 201 -4
609 201 4
727 201 -4
203 202 4
204 202 4
379 202 -4
391 202 -4
410 203 -4
485 203 4
534 203 -4
445 204 -4
537 204 4
306 205 -4
341 205 -4
595 205 4
793 205 4
301 206 -4
335 206 -4
561 206 4
913 206 4
405 207 4
457 207 -4
561 207 4
679 207 -4
481 208 -4
761 208 4
862 208 -4
397 209 4
408 209 -4
652 209 4
689 209 -4
399 210 4
425 210 -4
466 210 -4
401 211 -4
886 212 4
887 212 -4
890 212 -4
264 213 -4
311 213 4
744 213 4
834 213 -4
526 214 4
527 214 -4
528 214 -4
856 214 4
308 215 -4
342 215 -4
601 215 4
856 215 4
422 216 4
439 216 -4
601 216 4
643 216 -4
413 217 -4
829 218 4
830 218 -4
833 218 -4
305 219 4
545 219 -4
785 219 -4
788 219 4
250 220 -4
329 220 4
499 220 4
499 221 4
500 221 -4
501 221 -4
800 221 4
313 222 -4
643 222 4
800 222 4
801 222 -4
247 223 -4
298 223 4
742 223 -4
838 223 4
495 224 4
591 224 -4
790 224 -4
242 225 -4
318 225 4
475 225 4
639 225 -4
475 226 4
476 226 -4
750 226 4
461 227 -4
567 227 4
607 227 4
867 227 -4
229 228 -4
230 228 4
400 228 -4
446 228 4
279 229 4
466 229 4
512 229 -4
411 230 -4
449 230 4
469 230 -4
239 231 -4
290 231 -4
292 231 4
895 231 4
233 232 4
387 232 4
403 232 -4
520 232 -4
746 233 -4
902 233 4
597 234 -4
636 234 4
454 235 4
455 235 -4
717 235 4
603 236 4
683 236 -4
723 236 -4
441 237 -4
650 237 4
811 237 -4
289 238 4
411 238 -4
488 238 4
538 238 -4
784 239 4
833 239 -4
836 239 4
548 240 4
707 240 -4
845 240 4
242 241 -4
594 241 4
796 241 -4
713 242 4
909 242 4
435 243 4
436 243 -4
677 243 4
460 244 -4
686 244 4
762 244 -4
255 245 4
428 245 4
447 245 -4
941 245 -4
297 246 4
428 246 -4
577 246 -4
741 247 4
890 247 -4
893 247 4
587 248 4
670 248 -4
792 248 4
250 249 -4
554 249 4
850 249 -4
251 250 4
676 250 4
419 251 4
524 251 -4
527 251 -4
419 252 4
420 252 -4
641 252 4
407 253 4
723 253 4
724 253 -4
729 254 4
932 254 4
933 254 -4
936 254 -4
880 255 -4
882 255 -4
304 256 4
447 256 -4
537 256 4
618 256 -4
264 257 -4
415 257 4
432 257 -4
545 257 4
299 258 4
300 258 -4
523 258 -4
906 258 4
260 259 4
637 259 4
715 259 -4
906 259 -4
420 260 4
500 260 -4
907 260 -4
460 261 4
461 261 -4
766 261 -4
872 261 4
768 262 4
872 262 4
873 262 -4
875 262 -4
427 263 4
821 263 -4
823 263 -4
666 264 4
293 265 4
498 265 -4
712 265 -4
267 266 4
595 266 4
749 266 -4
436 267 4
476 267 -4
849 267 -4
916 268 4
917 268 -4
919 268 -4
816 269 4
817 269 -4
818 269 4
819 269 -4
446 270 4
772 270 -4
774 270 -4
451 271 4
625 271 4
627 271 -4
893 271 -4
273 272 4
518 272 4
707 272 -4
790 272 -4
893 273 4
894 273 -4
897 273 -4
283 274 4
474 274 -4
675 274 -4
322 275 -4
458 275 4
859 275 -4
277 276 4
458 276 -4
531 276 -4
602 277 -4
808 277 4
317 278 -4
766 278 4
767 278 -4
874 278 4
733 279 -4
735 279 -4
471 280 4
584 280 4
667 280 -4
836 280 -4
282 281 4
494 281 4
746 281 -4
841 281 -4
836 282 4
837 282 -4
840 282 -4
634 283 -4
636 283 -4
501 284 -4
503 284 -4
332 285 -4
480 285 4
804 285 -4
309 286 4
761 286 -4
763 286 -4
928 286 4
483 287 4
928 287 4
929 287 -4
931 287 -4
325 288 -4
728 288 -4
935 288 4
695 289 -4
697 289 -4
291 290 4
704 290 -4
544 291 4
624 291 -4
785 291 -4
547 292 4
787 292 -4
896 292 -4
591 293 4
592 293 -4
594 293 -4
337 294 -4
506 294 4
754 294 4
755 294 -4
302 295 4
724 295 -4
812 295 -4
868 295 4
508 296 4
868 296 4
869 296 -4
871 296 -4
657 297 4
658 297 -4
660 297 -4
586 298 4
743 298 -4
839 298 -4
551 299 4
552 299 -4
554 299 -4
340 300 4
794 300 -4
914 301 4
917 301 -4
684 302 4
686 302 -4
533 303 4
812 303 4
813 303 -4
815 303 -4
614 304 4
615 304 -4
617 304 -4
630 305 4
704 305 -4
789 305 -4
343 306 4
554 306 -4
792 306 4
559 307 4
909 307 4
910 307 -4
912 307 -4
857 308 4
859 308 -4
648 309 4
650 309 -4
568 310 4
763 310 4
765 310 -4
667 311 -4
669 311 4
745 311 -4
599 312 4
851 312 4
852 312 -4
855 312 -4
802 313 4
804 313 -4
603 314 -4
722 314 -4
919 314 4
609 315 4
725 315 4
727 315 -4
317 316 4
610 316 -4
819 316 -4
612 317 4
769 317 -4
640 318 4
797 318 -4
799 318 -4
644 319 4
751 319 4
752 319 -4
755 319 -4
322 320 4
644 320 -4
919 320 -4
322 321 4
647 321 -4
758 321 -4
652 323 4
687 323 4
689 323 -4
325 324 4
653 324 -4
875 324 -4
655 325 4
730 325 -4
327 326 4
662 326 -4
345 327 -4
944 327 4
945 327 -4
905 328 4
908 328 -4
749 329 -4
854 329 -4
680 330 4
718 330 4
719 330 -4
721 330 -4
332 331 4
683 331 -4
807 331 -4
805 332 4
699 333 -4
946 333 4
848 334 4
850 334 -4
719 335 4
912 335 -4
337 336 4
722 336 -4
862 336 -4
756 337 4
920 337 -4
339 338 4
737 338 -4
825 339 4
826 339 -4
828 339 -4
900 340 4
901 340 -4
904 340 -4
794 341 4
796 341 -4
752 342 4
854 342 4
855 342 -4
843 343 4
844 343 -4
847 343 -4
821 344 4
937 344 4
938 344 -4
940 344 -4
946 345 4
432 346 -4
776 347 -4
822 347 4
881 348 4
368 349 -4
453 349 -4
845 349 4
626 350 -4
479 351 -4
921 351 -4
493 352 -4
581 352 4
889 352 -4
861 354 -4
516 355 -4
622 355 4
832 355 -4
458 356 -4
682 356 -4
543 357 -4
663 357 4
889 357 -4
553 358 -4
480 359 -4
646 359 -4
582 360 -4
700 360 4
593 361 -4
506 362 -4
757 362 4
685 363 -4
924 363 -4
926 363 -4
623 364 -4
738 364 4
453 365 -4
591 365 -4
635 365 -4
530 366 -4
682 366 -4
806 366 4
664 367 -4
781 367 4
417 368 -4
672 368 4
903 368 -4
563 369 -4
646 369 -4
860 369 4
471 370 -4
701 370 -4
829 370 4
392 371 -4
779 371 -4
451 372 -4
739 372 -4
886 372 4
509 373 -4
932 373 4
471 374 -4
782 374 -4
534 375 -4
451 376 -4
830 376 -4
918 377 -4
569 378 -4
610 378 -4
425 379 -4
463 379 4
569 379 -4
430 380 -4
668 381 4
838 381 -4
892 381 4
860 382 -4
463 383 -4
611 383 -4
653 383 -4
399 384 -4
445 384 -4
611 384 -4
449 385 -4
628 386 4
835 386 4
895 386 -4
495 387 -4
629 387 -4
788 387 -4
644 388 -4
806 388 -4
485 389 -4
654 389 -4
690 389 -4
410 390 -4
465 390 -4
654 390 -4
426 391 -4
465 391 -4
574 391 4
393 392 -4
448 392 4
578 392 -4
469 393 -4
495 394 -4
548 394 -4
744 394 4
838 394 -4
435 395 -4
499 395 4
796 395 4
680 396 -4
757 396 -4
509 397 -4
691 397 -4
728 397 -4
425 398 -4
487 398 -4
691 398 -4
876 399 -4
428 400 -4
430 400 4
491 400 -4
402 401 -4
429 401 4
619 401 -4
491 402 -4
587 403 -4
705 403 4
895 403 -4
419 404 -4
526 404 4
505 405 -4
721 405 -4
407 406 -4
459 406 -4
605 406 -4
440 407 -4
482 407 -4
534 408 -4
729 408 -4
767 408 -4
445 409 -4
511 409 -4
729 409 -4
572 410 -4
412 411 -4
427 411 4
413 412 4
447 412 -4
514 412 -4
414 413 -4
944 413 -4
514 414 -4
452 415 -4
548 416 -4
631 416 -4
668 416 4
495 417 -4
631 417 -4
420 418 -4
558 418 4
438 421 -4
528 421 -4
858 421 -4
913 421 4
479 422 -4
755 422 -4
569 423 -4
768 423 -4
817 423 -4
465 424 -4
536 424 -4
768 424 -4
427 426 4
467 427 -4
429 428 -4
467 429 -4
540 429 -4
431 430 -4
884 430 -4
540 431 -4
472 432 -4
587 433 -4
628 433 4
670 433 -4
436 434 -4
911 434 4
909 435 4
560 437 -4
915 437 -4
916 438 4
804 439 -4
442 440 -4
442 441 -4
816 442 -4
611 443 -4
818 443 -4
873 443 -4
487 444 -4
571 444 -4
818 444 -4
489 446 -4
448 447 -4
489 448 -4
579 448 -4
450 449 -4
825 449 -4
579 450 -4
585 452 4
631 452 -4
707 452 -4
713 453 4
851 454 4
714 455 -4
600 456 -4
458 457 -4
859 457 -4
461 459 -4
507 459 -4
764 459 4
654 462 -4
874 462 -4
933 462 -4
464 463 -4
511 464 -4
613 464 -4
874 464 -4
773 466 -4
940 466 -4
468 467 -4
576 467 -4
512 468 -4
620 468 -4
470 469 -4
777 469 -4
620 470 -4
546 472 4
670 472 -4
746 472 -4
474 473 -4
676 473 4
903 473 -4
849 474 -4
642 477 -4
480 478 -4
917 478 -4
562 479 -4
564 479 4
564 480 -4
564 481 -4
604 481 -4
483 482 4
932 483 4
691 484 -4
935 484 -4
486 485 -4
536 486 -4
656 486 -4
935 486 -4
572 488 -4
822 488 -4
880 488 -4
490 489 -4
617 489 -4
538 490 -4
662 490 -4
492 491 -4
826 491 -4
662 492 -4
544 493 -4
547 494 -4
894 494 4
498 496 -4
637 496 4
846 496 -4
597 497 -4
635 497 -4
907 497 4
907 498 -4
503 502 -4
678 502 -4
754 503 -4
506 504 -4
529 505 -4
602 505 4
602 506 -4
723 507 -4
868 507 4
510 509 -4
876 509 -4
571 510 -4
694 510 -4
936 510 4
657 511 -4
513 512 -4
660 512 -4
577 513 -4
699 513 -4
515 514 -4
885 514 -4
699 515 -4
583 516 -4
544 517 -4
583 517 -4
742 517 -4
586 518 -4
837 518 4
551 519 -4
791 519 4
551 520 -4
841 520 -4
523 521 -4
595 521 4
793 521 -4
524 522 -4
593 522 4
849 522 4
524 523 -4
525 524 4
527 525 -4
715 526 4
914 528 -4
530 529 -4
645 530 -4
756 530 4
645 531 -4
684 531 -4
863 531 4
760 532 -4
812 532 4
535 534 -4
613 535 -4
731 535 -4
875 535 4
614 536 -4
772 537 -4
539 538 -4
697 538 -4
618 539 -4
737 539 -4
541 540 -4
945 540 -4
737 541 -4
624 542 4
624 543 -4
887 544 -4
703 545 4
630 546 -4
787 546 4
790 547 -4
898 547 -4
550 548 -4
552 549 -4
747 549 4
552 550 -4
898 550 -4
903 551 -4
846 552 -4
555 553 4
556 553 -4
748 553 -4
556 554 -4
557 555 -4
795 555 4
557 556 -4
909 557 -4
559 558 4
749 558 4
560 559 -4
913 559 4
857 560 -4
563 562 -4
681 563 -4
805 563 4
565 564 -4
648 565 -4
681 565 -4
923 565 4
763 566 4
568 567 4
570 569 -4
656 570 -4
770 570 -4
819 570 4
573 571 -4
575 572 -4
879 572 -4
575 573 -4
734 573 -4
770 573 -4
576 574 4
733 574 -4
881 574 4
576 575 -4
661 576 -4
578 577 -4
735 577 -4
661 578 -4
778 578 -4
580 579 -4
778 580 -4
665 581 4
665 582 -4
584 583 -4
665 584 -4
834 584 -4
669 585 -4
743 585 4
588 586 -4
841 586 -4
590 587 -4
590 588 -4
669 588 -4
592 589 -4
708 589 4
592 590 -4
793 592 -4
596 593 -4
711 593 -4
596 594 -4
847 594 -4
598 595 -4
598 596 -4
714 597 -4
851 597 4
851 598 -4
600 599 -4
911 599 4
802 600 -4
603 602 -4
605 604 -4
647 604 4
760 604 -4
607 605 -4
725 606 4
725 607 -4
810 607 -4
609 608 4
928 608 4
610 609 -4
612 611 -4
694 612 -4
820 612 -4
615 613 -4
731 614 -4
696 615 -4
820 615 -4
617 616 4
695 616 -4
822 616 4
698 617 -4
619 618 -4
774 618 -4
698 619 -4
827 619 -4
621 620 -4
827 621 -4
702 622 4
702 623 -4
625 624 -4
702 625 -4
891 625 -4
629 626 -4
744 626 4
629 627 -4
705 627 4
891 627 -4
704 628 4
706 628 -4
706 629 -4
632 630 -4
898 630 -4
633 631 -4
633 632 -4
706 632 -4
634 633 -4
748 634 -4
638 635 -4
674 635 -4
638 636 -4
904 636 -4
639 637 -4
794 637 4
639 638 -4
642 640 -4
853 640 4
751 641 4
751 642 -4
644 643 -4
647 645 -4
687 649 4
687 650 -4
865 650 -4
652 651 4
868 651 4
653 652 -4
655 654 -4
731 655 -4
878 655 -4
658 656 -4
694 657 -4
659 658 -4
878 658 -4
660 659 4
773 659 4
736 660 -4
823 661 -4
944 661 -4
740 663 4
740 664 -4
666 665 -4
740 666 -4
668 667 4
745 668 -4
671 669 -4
672 670 -4
672 671 -4
745 671 -4
673 672 -4
675 673 -4
711 673 -4
710 674 -4
905 674 4
905 675 -4
848 676 4
718 677 4
718 678 -4
680 679 -4
752 679 4
805 680 -4
683 681 -4
925 686 -4
814 687 4
689 688 4
812 688 4
690 689 -4
934 690 -4
693 691 -4
693 692 -4
876 692 -4
934 692 -4
770 693 -4
939 693 -4
695 694 -4
939 695 -4
697 696 4
775 697 -4
882 698 -4
884 698 -4
776 699 4
783 700 4
783 701 -4
703 702 -4
783 703 -4
789 705 -4
708 706 -4
709 707 -4
709 708 -4
789 708 -4
710 709 -4
712 710 -4
848 711 4
848 712 -4
905 713 4
716 714 -4
795 714 -4
716 715 -4
719 717 4
753 718 4
720 719 4
721 720 -4
756 721 -4
923 722 -4
764 725 4
727 726 4
763 726 4
728 727 -4
730 729 -4
732 730 -4
820 730 -4
733 731 -4
733 732 -4
877 732 -4
735 734 4
824 735 -4
825 736 -4
942 736 -4
944 736 -4
831 738 4
831 739 -4
741 740 -4
831 741 -4
743 742 -4
839 744 -4
747 745 -4
900 746 -4
839 747 -4
900 747 -4
794 748 4
752 750 4
912 750 -4
803 751 4
755 753 -4
920 757 4
759 758 -4
863 758 -4
920 758 -4
761 759 -4
762 760 4
762 761 -4
765 764 4
767 765 -4
769 768 -4
771 769 -4
878 769 -4
772 770 -4
772 771 -4
938 771 -4
883 773 4
883 774 -4
777 775 -4
884 775 -4
779 776 -4
779 777 -4
883 777 -4
780 778 -4
780 779 -4
888 781 4
888 782 -4
784 783 -4
786 784 -4
888 784 -4
787 785 -4
787 786 -4
896 788 -4
791 789 -4
843 790 -4
843 791 -4
896 791 -4
797 795 -4
797 796 -4
911 797 4
799 798 -4
910 798 4
801 799 -4
856 799 -4
855 800 -4
858 802 4
804 803 -4
808 807 -4
809 807 -4
810 808 4
810 809 -4
811 810 -4
813 811 -4
930 813 -4
815 814 4
929 814 -4
817 815 -4
937 818 -4
937 819 -4
821 820 -4
943 822 4
943 823 -4
825 824 -4
826 824 -4
943 826 -4
828 827 -4
833 831 -4
835 832 -4
835 833 -4
837 834 -4
837 835 -4
840 838 -4
842 839 -4
842 840 -4
844 841 -4
844 842 -4
847 845 4
852 849 -4
852 850 -4
853 852 4
855 853 -4
913 854 -4
915 857 4
859 858 -4
864 861 4
864 862 -4
865 863 4
865 864 -4
867 865 -4
869 866 4
869 867 -4
870 869 -4
871 870 4
873 871 -4
877 874 -4
877 875 -4
879 876 -4
879 877 -4
880 878 -4
880 879 -4
885 883 -4
946 884 4
946 885 -4
890 888 -4
892 889 -4
892 890 -4
894 891 -4
894 892 -4
897 895 -4
899 896 -4
899 897 -4
901 898 -4
901 899 -4
904 902 4
908 906 -4
910 907 -4
910 908 -4
912 911 -4
916 915 -4
917 915 -4
922 920 -4
924 921 4
924 922 -4
925 923 4
925 924 -4
927 925 -4
929 926 4
928 927 -4
929 927 -4
931 930 4
932 931 -4
933 931 -4
936 934 -4
938 935 -4
938 936 -4
939 937 -4
940 939 -4
941 940 -4
942 941 -4
945 943 -4
601
346 2
347 2
348 2
349 2
350 2
351 2
352 2
353 2
354 2
355 2
356 2
357 2
358 2
359 2
360 2
361 2
362 2
363 2
364 2
365 2
366 2
367 2
368 2
369 2
370 2
371 2
372 2
373 2
374 2
375 2
376 4
377 2
378 2
379 2
380 2
381 -2
382 2
383 2
384 2
385 2
386 -2
387 2
388 2
389 2
390 2
391 2
392 2
393 2
394 2
395 -2
396 2
397 2
398 2
399 2
400 2
401 2
402 2
403 2
404 -2
405 2
406 2
407 2
408 4
409 4
410 4
411 2
412 2
413 2
414 2
415 2
416 2
417 4
418 -2
419 -2
420 2
421 2
422 2
423 4
424 4
425 4
426 2
427 -2
428 2
429 2
430 2
431 2
432 4
433 2
434 -2
435 -2
436 2
437 2
438 2
439 4
440 2
441 4
442 4
443 4
444 4
445 4
446 -2
447 4
448 2
449 2
450 2
451 2
452 2
453 2
454 -2
455 4
456 2
457 4
458 2
459 2
460 2
461 4
462 4
463 2
464 4
465 4
466 2
467 4
468 2
469 4
470 2
471 2
472 2
473 2
474 2
475 -4
476 4
477 4
478 4
479 2
480 2
481 4
482 2
483 -2
484 2
485 2
486 4
487 4
488 2
489 4
490 2
491 4
492 2
493 2
494 -2
495 2
496 2
497 2
498 2
499 -4
500 4
501 4
502 4
503 4
504 2
505 2
506 2
507 2
508 -2
509 4
510 2
511 4
512 4
513 4
514 4
515 2
516 2
517 4
518 -2
519 -2
520 2
521 2
522 -2
523 4
524 2
525 2
526 -4
527 4
528 4
529 2
530 2
531 2
532 2
533 -2
534 4
535 2
536 4
537 -2
538 4
539 4
540 4
541 2
542 -2
543 2
544 2
545 -2
546 -2
547 2
548 2
549 -2
550 2
551 2
552 4
553 2
554 2
555 -2
556 4
557 2
558 -4
559 -2
560 4
561 -2
562 4
563 2
564 2
565 2
566 2
567 -2
568 -2
569 4
570 2
571 4
572 4
573 4
574 -2
575 4
576 2
577 4
578 4
579 2
580 2
581 -2
582 2
583 2
584 2
585 -2
586 2
587 2
588 2
589 -2
590 2
591 2
592 4
593 2
594 2
595 -2
596 4
597 2
598 2
599 -2
600 4
601 -2
602 2
603 2
604 2
605 4
606 2
607 2
608 -2
609 -2
610 2
611 4
612 2
613 4
614 2
615 4
616 -2
617 2
618 4
619 4
620 2
621 2
622 -2
623 2
624 2
625 2
626 2
627 2
628 -2
629 4
630 2
631 4
632 2
633 2
634 4
635 4
636 2
637 -2
638 4
639 2
640 -2
641 -4
642 4
643 2
644 2
645 2
646 2
647 2
648 -2
649 2
650 2
651 -4
652 -2
653 4
654 4
655 2
656 4
657 2
658 4
659 -2
660 2
661 4
662 2
663 -2
664 2
665 2
666 2
667 2
668 -2
669 2
670 4
671 2
672 2
673 4
674 2
675 2
676 -2
677 -4
678 4
679 2
680 2
681 2
682 2
683 4
684 -2
685 2
686 2
687 -2
688 -4
689 2
690 4
691 4
692 4
693 4
694 4
695 4
696 -2
697 2
698 4
699 2
700 -2
701 2
702 2
703 2
704 2
705 -2
706 4
707 4
708 2
709 4
710 4
711 2
712 2
713 -2
714 4
715 2
716 4
717 -4
718 -2
719 -2
720 2
721 4
722 4
723 2
724 2
725 -2
726 -4
727 2
728 4
729 2
730 4
731 4
732 2
733 4
734 -2
735 2
736 4
737 4
738 -2
739 2
740 2
741 2
742 2
743 2
744 -2
745 4
746 4
747 2
748 2
749 2
750 -2
751 -2
752 -2
753 2
754 2
755 4
756 -2
757 -2
758 4
759 2
760 2
761 2
762 2
763 -2
764 -4
765 2
766 -2
767 4
768 2
769 4
770 4
771 4
772 4
773 -2
774 2
775 2
776 2
777 4
778 4
779 4
780 2
781 -2
782 2
783 2
784 2
785 2
786 2
787 2
788 2
789 4
790 4
791 2
792 -2
793 2
794 -2
795 2
796 2
797 2
798 -2
799 4
800 -2
801 4
802 -2
803 2
804 4
805 -2
806 -2
807 4
808 -2
809 2
810 2
811 2
812 -2
813 2
814 -2
815 2
816 -2
817 4
818 2
819 2
820 4
821 2
822 -2
823 2
824 2
825 2
826 4
827 4
828 2
829 -2
830 2
831 2
832 2
833 4
834 2
835 2
836 -2
837 2
838 2
839 4
840 2
841 4
842 2
843 2
844 4
845 -4
846 2
847 2
848 -2
849 2
850 2
851 -2
852 2
853 -2
854 2
855 4
856 -2
857 -2
858 2
859 4
860 -2
861 -2
862 4
863 -2
864 2
865 2
866 -2
867 2
868 -4
869 2
870 -2
871 2
872 -4
873 4
874 2
875 2
876 4
877 4
878 4
879 4
880 4
881 -2
882 4
883 2
884 2
885 4
886 -2
887 2
888 2
889 2
890 4
891 2
892 2
893 -2
894 2
895 2
896 4
897 2
898 4
899 4
900 2
901 4
902 -4
903 2
904 2
905 -2
906 2
907 2
908 4
909 -2
910 2
911 -2
912 4
913 -2
914 -2
915 2
916 -2
917 4
918 2
919 2
920 2
921 -2
922 4
923 -2
924 2
925 2
926 -2
927 2
928 -2
929 2
930 -2
931 2
932 -2
933 4
934 2
935 2
936 2
937 2
938 4
939 4
940 4
941 2
942 4
943 2
944 2
945 4
946 -2
